networks/zoo_20_17/zoo_20_17-lower.sol
<?xml version = "1.0" encoding="UTF-8" standalone="yes"?>
<CPLEXSolution version="1.2">
 <header
   problemName="networks/zoo_20_17/zoo_20_17-lower.lp"
   solutionName="incumbent"
   solutionIndex="-1"
   objectiveValue="7"
   solutionTypeValue="3"
   solutionTypeString="primal"
   solutionStatusValue="101"
   solutionStatusString="integer optimal solution"
   solutionMethodString="mip"
   primalFeasible="1"
   dualFeasible="1"
   MIPNodes="0"
   MIPIterations="21"
   writeLevel="3"/>
 <quality
   epInt="1.0000000000000001e-05"
   epRHS="9.9999999999999995e-07"
   maxIntInfeas="0"
   maxPrimalInfeas="0"
   maxX="1"
   maxSlack="1"/>
 <variables>
  <variable name="Y(1,4)" index="3" value="1"/>
  <variable name="Y(5,5)" index="56" value="1"/>
  <variable name="Y(7,1)" index="78" value="1"/>
  <variable name="Y(9,3)" index="106" value="1"/>
  <variable name="Y(14,7)" index="175" value="1"/>
  <variable name="Y(15,6)" index="187" value="1"/>
  <variable name="Y(16,2)" index="196" value="1"/>
  <variable name="X(1,14,7)" index="227" value="1"/>
  <variable name="X(2,4,1)" index="238" value="1"/>
  <variable name="X(2,15,16)" index="270" value="1"/>
  <variable name="X(3,4,5)" index="276" value="1"/>
  <variable name="X(3,16,9)" index="297" value="1"/>
  <variable name="X(4,1,7)" index="312" value="1"/>
  <variable name="X(4,2,16)" index="338" value="1"/>
  <variable name="X(4,3,9)" index="348" value="1"/>
  <variable name="X(4,5,5)" index="361" value="1"/>
  <variable name="X(4,7,14)" index="387" value="1"/>
  <variable name="X(4,17,1)" index="391" value="1"/>
  <variable name="X(5,4,14)" index="421" value="1"/>
  <variable name="X(5,18,5)" index="429" value="1"/>
  <variable name="X(6,4,15)" index="456" value="1"/>
  <variable name="X(7,4,16)" index="474" value="1"/>
  <variable name="X(7,20,14)" index="489" value="1"/>
 </variables>
</CPLEXSolution>
